p cnf 516 260
41 -441 0
42 51 -442 0
43 52 61 -443 0
44 53 62 71 -444 0
45 54 63 72 81 -445 0
46 55 64 73 82 91 -446 0
47 56 65 74 83 92 101 -447 0
48 57 66 75 84 93 102 111 -448 0
49 58 67 76 85 94 103 112 121 -449 0
50 59 68 77 86 95 104 113 122 131 -450 0
60 69 78 87 96 105 114 123 132 -451 0
70 79 88 97 106 115 124 133 -452 0
80 89 98 107 116 125 134 -453 0
90 99 108 117 126 135 -454 0
100 109 118 127 136 -455 0
110 119 128 137 -456 0
120 129 138 -457 0
130 139 -458 0
140 -459 0
141 -460 0
142 151 -461 0
143 152 161 -462 0
144 153 162 171 -463 0
145 154 163 172 181 -464 0
146 155 164 173 182 191 -465 0
147 156 165 174 183 192 201 -466 0
148 157 166 175 184 193 202 211 -467 0
149 158 167 176 185 194 203 212 221 -468 0
150 159 168 177 186 195 204 213 222 231 -469 0
160 169 178 187 196 205 214 223 232 -470 0
170 179 188 197 206 215 224 233 -471 0
180 189 198 207 216 225 234 -472 0
190 199 208 217 226 235 -473 0
200 209 218 227 236 -474 0
210 219 228 237 -475 0
220 229 238 -476 0
230 239 -477 0
240 -478 0
241 -479 0
242 251 -480 0
243 252 261 -481 0
244 253 262 271 -482 0
245 254 263 272 281 -483 0
246 255 264 273 282 291 -484 0
247 256 265 274 283 292 301 -485 0
248 257 266 275 284 293 302 311 -486 0
249 258 267 276 285 294 303 312 321 -487 0
250 259 268 277 286 295 304 313 322 331 -488 0
260 269 278 287 296 305 314 323 332 -489 0
270 279 288 297 306 315 324 333 -490 0
280 289 298 307 316 325 334 -491 0
290 299 308 317 326 335 -492 0
300 309 318 327 336 -493 0
310 319 328 337 -494 0
320 329 338 -495 0
330 339 -496 0
340 -497 0
341 -498 0
342 351 -499 0
343 352 361 -500 0
344 353 362 371 -501 0
345 354 363 372 381 -502 0
346 355 364 373 382 391 -503 0
347 356 365 374 383 392 401 -504 0
348 357 366 375 384 393 402 411 -505 0
349 358 367 376 385 394 403 412 421 -506 0
350 359 368 377 386 395 404 413 422 431 -507 0
360 369 378 387 396 405 414 423 432 -508 0
370 379 388 397 406 415 424 433 -509 0
380 389 398 407 416 425 434 -510 0
390 399 408 417 426 435 -511 0
400 409 418 427 436 -512 0
410 419 428 437 -513 0
420 429 438 -514 0
430 439 -515 0
440 -516 0
1 2 3 4 5 6 7 8 9 10 0
11 12 13 14 15 16 17 18 19 20 0
21 22 23 24 25 26 27 28 29 30 0
31 32 33 34 35 36 37 38 39 40 0
-1 -2 0
-1 -3 0
-1 -4 0
-1 -5 0
-1 -6 0
-1 -7 0
-1 -8 0
-1 -9 0
-1 -10 0
-2 -3 0
-2 -4 0
-2 -5 0
-2 -6 0
-2 -7 0
-2 -8 0
-2 -9 0
-2 -10 0
-3 -4 0
-3 -5 0
-3 -6 0
-3 -7 0
-3 -8 0
-3 -9 0
-3 -10 0
-4 -5 0
-4 -6 0
-4 -7 0
-4 -8 0
-4 -9 0
-4 -10 0
-5 -6 0
-5 -7 0
-5 -8 0
-5 -9 0
-5 -10 0
-6 -7 0
-6 -8 0
-6 -9 0
-6 -10 0
-7 -8 0
-7 -9 0
-7 -10 0
-8 -9 0
-8 -10 0
-9 -10 0
-11 -12 0
-11 -13 0
-11 -14 0
-11 -15 0
-11 -16 0
-11 -17 0
-11 -18 0
-11 -19 0
-11 -20 0
-12 -13 0
-12 -14 0
-12 -15 0
-12 -16 0
-12 -17 0
-12 -18 0
-12 -19 0
-12 -20 0
-13 -14 0
-13 -15 0
-13 -16 0
-13 -17 0
-13 -18 0
-13 -19 0
-13 -20 0
-14 -15 0
-14 -16 0
-14 -17 0
-14 -18 0
-14 -19 0
-14 -20 0
-15 -16 0
-15 -17 0
-15 -18 0
-15 -19 0
-15 -20 0
-16 -17 0
-16 -18 0
-16 -19 0
-16 -20 0
-17 -18 0
-17 -19 0
-17 -20 0
-18 -19 0
-18 -20 0
-19 -20 0
-21 -22 0
-21 -23 0
-21 -24 0
-21 -25 0
-21 -26 0
-21 -27 0
-21 -28 0
-21 -29 0
-21 -30 0
-22 -23 0
-22 -24 0
-22 -25 0
-22 -26 0
-22 -27 0
-22 -28 0
-22 -29 0
-22 -30 0
-23 -24 0
-23 -25 0
-23 -26 0
-23 -27 0
-23 -28 0
-23 -29 0
-23 -30 0
-24 -25 0
-24 -26 0
-24 -27 0
-24 -28 0
-24 -29 0
-24 -30 0
-25 -26 0
-25 -27 0
-25 -28 0
-25 -29 0
-25 -30 0
-26 -27 0
-26 -28 0
-26 -29 0
-26 -30 0
-27 -28 0
-27 -29 0
-27 -30 0
-28 -29 0
-28 -30 0
-29 -30 0
-31 -32 0
-31 -33 0
-31 -34 0
-31 -35 0
-31 -36 0
-31 -37 0
-31 -38 0
-31 -39 0
-31 -40 0
-32 -33 0
-32 -34 0
-32 -35 0
-32 -36 0
-32 -37 0
-32 -38 0
-32 -39 0
-32 -40 0
-33 -34 0
-33 -35 0
-33 -36 0
-33 -37 0
-33 -38 0
-33 -39 0
-33 -40 0
-34 -35 0
-34 -36 0
-34 -37 0
-34 -38 0
-34 -39 0
-34 -40 0
-35 -36 0
-35 -37 0
-35 -38 0
-35 -39 0
-35 -40 0
-36 -37 0
-36 -38 0
-36 -39 0
-36 -40 0
-37 -38 0
-37 -39 0
-37 -40 0
-38 -39 0
-38 -40 0
-39 -40 0
